unsat
(:SPACER-conj                         4
 :SPACER-expand-pob-undef             13
 :SPACER-inductive-gen                60
 :SPACER-inductive-gen-weaken-fail    64
 :SPACER-inductive-gen-weaken-success 3
 :SPACER-inductive-level              12
 :SPACER-max-depth                    15
 :SPACER-max-query-lvl                15
 :SPACER-non-local-gen                25
 :SPACER-num-active-lemmas            21
 :SPACER-num-ctp-blocked              26
 :SPACER-num-invariants               15
 :SPACER-num-is_invariant             200
 :SPACER-num-lemmas                   83
 :SPACER-num-pobs                     25
 :SPACER-num-propagations             123
 :SPACER-num-queries                  58
 :added-eqs                           23554
 :arith-assert-diseq                  1828
 :arith-assert-lower                  17728
 :arith-assert-upper                  16442
 :arith-bound-prop                    920
 :arith-branch-var                    178
 :arith-conflicts                     288
 :arith-eq-adapter                    3542
 :arith-fixed-eqs                     3578
 :arith-gcd-conflicts                 4
 :arith-gcd-tests                     10262
 :arith-gomory-cuts                   134
 :arith-ineq-splits                   178
 :arith-num-rows                      222
 :arith-offset-eqs                    788
 :arith-patches                       350
 :arith-patches_succ                  8
 :arith-pivots                        3684
 :arith-row-summations                77668
 :arith-tableau-max-columns           360
 :arith-tableau-max-rows              222
 :conflicts                           1426
 :decisions                           23670
 :del-clause                          9292
 :final-checks                        636
 :iuc_solver.num_proxies              84
 :max-memory                          34.22
 :memory                              33.40
 :minimized-lits                      776
 :mk-bool-var                         12814
 :mk-clause                           11652
 :num-allocs                          80414924
 :num-checks                          1108
 :pool_solver.checks                  554
 :pool_solver.checks.sat              39
 :pool_solver.checks.undef            106
 :propagations                        75200
 :rlimit-count                        1484806
 :time                                0.55
 :time.iuc_solver.get_iuc             0.06
 :time.iuc_solver.get_iuc.hyp_reduce1 0.01
 :time.iuc_solver.get_iuc.hyp_reduce2 0.02
 :time.iuc_solver.get_iuc.learn_core  0.01
 :time.pool_solver.proof              0.01
 :time.pool_solver.smt.total          0.33
 :time.pool_solver.smt.total.sat      0.06
 :time.pool_solver.smt.total.undef    0.08
 :time.spacer.init_rules              0.00
 :time.spacer.mbp                     0.01
 :time.spacer.solve                   0.53
 :time.spacer.solve.propagate         0.13
 :time.spacer.solve.reach             0.40
 :time.spacer.solve.reach.children    0.02
 :time.spacer.solve.reach.cluster     0.03
 :time.spacer.solve.reach.gen.global  0.02
 :time.spacer.solve.reach.gen.ind     0.07
 :time.spacer.solve.reach.is-reach    0.00)
(:max-memory   34.22
 :memory       33.40
 :num-allocs   80414924
 :rlimit-count 1484806
 :time         0.55
 :total-time   0.57)
